(set-info :smt-lib-version 2.6)
(set-logic QF_NIA)
(set-info :source |
Generated by: Cristina Borralleras, Daniel Larraz, Albert Oliveras, Enric Rodriguez-Carbonell, Albert Rubio
Generated on: 2017-04-27
Generator: VeryMax
Application: Termination proving
Target solver: barcelogic
|)
(set-info :license "https://creativecommons.org/licenses/by/4.0/")
(set-info :category "industrial")
(set-info :status unknown)
(declare-fun Nl5main_x1 () Int)
(declare-fun Nl5main_y1 () Int)
(declare-fun Nl10main_x1 () Int)
(declare-fun Nl10main_y1 () Int)
(declare-fun Nl5main_x2 () Int)
(declare-fun Nl5main_y2 () Int)
(declare-fun Nl10main_x2 () Int)
(declare-fun Nl10main_y2 () Int)
(declare-fun lam0n0 () Int)
(declare-fun lam0n1 () Int)
(declare-fun lam0n2 () Int)
(declare-fun Nl5CT1 () Int)
(declare-fun Nl5CT2 () Int)
(declare-fun lam1n0 () Int)
(declare-fun lam1n1 () Int)
(declare-fun lam1n2 () Int)
(declare-fun lam2n0 () Int)
(declare-fun lam2n1 () Int)
(declare-fun lam2n2 () Int)
(declare-fun lam3n1 () Int)
(declare-fun lam3n2 () Int)
(declare-fun lam3n0 () Int)
(declare-fun lam4n1 () Int)
(declare-fun lam4n2 () Int)
(declare-fun Nl10CT1 () Int)
(declare-fun lam4n0 () Int)
(declare-fun lam5n1 () Int)
(declare-fun lam5n2 () Int)
(declare-fun Nl10CT2 () Int)
(declare-fun lam5n0 () Int)
(declare-fun lam6n0 () Int)
(declare-fun lam6n2 () Int)
(declare-fun lam6n3 () Int)
(declare-fun lam6n1 () Int)
(declare-fun lam7n0 () Int)
(declare-fun lam7n2 () Int)
(declare-fun lam7n3 () Int)
(declare-fun lam7n1 () Int)
(declare-fun lam8n0 () Int)
(declare-fun lam8n2 () Int)
(declare-fun lam8n3 () Int)
(declare-fun lam8n1 () Int)
(declare-fun lam9n0 () Int)
(declare-fun lam9n1 () Int)
(declare-fun lam9n2 () Int)
(declare-fun lam10n0 () Int)
(declare-fun lam10n1 () Int)
(declare-fun lam10n2 () Int)
(declare-fun lam11n0 () Int)
(declare-fun lam11n1 () Int)
(declare-fun lam11n2 () Int)
(declare-fun lam12n0 () Int)
(declare-fun lam12n1 () Int)
(declare-fun lam12n2 () Int)
(declare-fun lam12n3 () Int)
(declare-fun lam13n0 () Int)
(declare-fun lam13n1 () Int)
(declare-fun lam13n2 () Int)
(declare-fun lam13n3 () Int)
(declare-fun lam14n0 () Int)
(declare-fun lam14n1 () Int)
(declare-fun lam14n2 () Int)
(declare-fun lam14n3 () Int)
(declare-fun lam15n0 () Int)
(declare-fun lam15n1 () Int)
(declare-fun lam16n0 () Int)
(declare-fun lam16n1 () Int)
(declare-fun undef2 () Int)
(declare-fun main_x () Int)
(declare-fun lam20n0 () Int)
(declare-fun lam20n1 () Int)
(declare-fun lam20n2 () Int)
(declare-fun RFN1_CT () Int)
(declare-fun RFN1_main_y () Int)
(declare-fun RFN1_main_x () Int)
(declare-fun lam25n0 () Int)
(declare-fun lam25n2 () Int)
(declare-fun lam25n3 () Int)
(declare-fun lam25n1 () Int)
(declare-fun lam29n0 () Int)
(declare-fun lam29n1 () Int)
(declare-fun lam29n2 () Int)
(declare-fun lam33n0 () Int)
(declare-fun lam33n1 () Int)
(declare-fun lam33n2 () Int)
(declare-fun lam33n3 () Int)
(declare-fun lam18n0 () Int)
(declare-fun lam18n1 () Int)
(declare-fun lam18n2 () Int)
(declare-fun lam19n0 () Int)
(declare-fun lam19n1 () Int)
(declare-fun lam19n2 () Int)
(declare-fun lam23n0 () Int)
(declare-fun lam23n2 () Int)
(declare-fun lam23n3 () Int)
(declare-fun lam23n1 () Int)
(declare-fun lam24n0 () Int)
(declare-fun lam24n2 () Int)
(declare-fun lam24n3 () Int)
(declare-fun lam24n1 () Int)
(declare-fun lam27n0 () Int)
(declare-fun lam27n1 () Int)
(declare-fun lam27n2 () Int)
(declare-fun lam28n0 () Int)
(declare-fun lam28n1 () Int)
(declare-fun lam28n2 () Int)
(declare-fun lam31n0 () Int)
(declare-fun lam31n1 () Int)
(declare-fun lam31n2 () Int)
(declare-fun lam31n3 () Int)
(declare-fun lam32n0 () Int)
(declare-fun lam32n1 () Int)
(declare-fun lam32n2 () Int)
(declare-fun lam32n3 () Int)
(declare-fun lam17n0 () Int)
(declare-fun lam17n1 () Int)
(declare-fun lam17n2 () Int)
(declare-fun lam21n1 () Int)
(declare-fun lam21n2 () Int)
(declare-fun lam21n0 () Int)
(declare-fun lam22n0 () Int)
(declare-fun lam22n2 () Int)
(declare-fun lam22n3 () Int)
(declare-fun lam22n1 () Int)
(declare-fun lam26n0 () Int)
(declare-fun lam26n1 () Int)
(declare-fun lam26n2 () Int)
(declare-fun lam30n0 () Int)
(declare-fun lam30n1 () Int)
(declare-fun lam30n2 () Int)
(declare-fun lam30n3 () Int)
(assert ( and ( <= ( - 3 ) Nl5main_x1 ) ( <= Nl5main_x1 3 ) ( <= ( - 3 ) Nl5main_y1 ) ( <= Nl5main_y1 3 ) ( <= ( - 3 ) Nl10main_x1 ) ( <= Nl10main_x1 3 ) ( <= ( - 3 ) Nl10main_y1 ) ( <= Nl10main_y1 3 ) ( <= ( - 3 ) Nl5main_x2 ) ( <= Nl5main_x2 3 ) ( <= ( - 3 ) Nl5main_y2 ) ( <= Nl5main_y2 3 ) ( <= ( - 3 ) Nl10main_x2 ) ( <= Nl10main_x2 3 ) ( <= ( - 3 ) Nl10main_y2 ) ( <= Nl10main_y2 3 ) ))
(assert ( or ( and ( >= lam0n0 0 ) ( >= lam0n1 0 ) ( >= lam0n2 0 ) ( > ( + ( * 2 lam0n0 ) ( * Nl5CT1 lam0n1 ) ( * Nl5CT2 lam0n2 ) ( - 1 ) ) 0 ) ( = ( + ( * Nl5main_x1 lam0n1 ) ( * Nl5main_x2 lam0n2 ) ) 0 ) ( = ( + ( * ( - 1 ) lam0n0 ) ( * Nl5main_y1 lam0n1 ) ( * Nl5main_y2 lam0n2 ) ) 0 ) ) ( and ( >= lam1n0 0 ) ( >= lam1n1 0 ) ( >= lam1n2 0 ) ( > ( + ( * 2 lam1n0 ) ( * Nl5CT1 lam1n1 ) ( * Nl5CT2 lam1n2 ) ( - 1 ( + Nl5CT1 ( * Nl5main_y1 ( - 2 ) ) ) ) ) 0 ) ( = ( + ( * Nl5main_x1 lam1n1 ) ( * Nl5main_x2 lam1n2 ) ( - ( + 0 Nl5main_x1 ) ) ) 0 ) ( = ( + ( * ( - 1 ) lam1n0 ) ( * Nl5main_y1 lam1n1 ) ( * Nl5main_y2 lam1n2 ) ( - ( + 0 ( * Nl5main_y1 1 ) ) ) ) 0 ) ) ))
(assert ( or ( and ( >= lam0n0 0 ) ( >= lam0n1 0 ) ( >= lam0n2 0 ) ( > ( + ( * 2 lam0n0 ) ( * Nl5CT1 lam0n1 ) ( * Nl5CT2 lam0n2 ) ( - 1 ) ) 0 ) ( = ( + ( * Nl5main_x1 lam0n1 ) ( * Nl5main_x2 lam0n2 ) ) 0 ) ( = ( + ( * ( - 1 ) lam0n0 ) ( * Nl5main_y1 lam0n1 ) ( * Nl5main_y2 lam0n2 ) ) 0 ) ) ( and ( >= lam2n0 0 ) ( >= lam2n1 0 ) ( >= lam2n2 0 ) ( > ( + ( * 2 lam2n0 ) ( * Nl5CT1 lam2n1 ) ( * Nl5CT2 lam2n2 ) ( - 1 ( + Nl5CT2 ( * Nl5main_y2 ( - 2 ) ) ) ) ) 0 ) ( = ( + ( * Nl5main_x1 lam2n1 ) ( * Nl5main_x2 lam2n2 ) ( - ( + 0 Nl5main_x2 ) ) ) 0 ) ( = ( + ( * ( - 1 ) lam2n0 ) ( * Nl5main_y1 lam2n1 ) ( * Nl5main_y2 lam2n2 ) ( - ( + 0 ( * Nl5main_y2 1 ) ) ) ) 0 ) ) ))
(assert ( or ( and ( >= lam3n1 0 ) ( >= lam3n2 0 ) ( > ( + ( * Nl5CT1 lam3n1 ) ( * Nl5CT2 lam3n2 ) ( - 1 ) ) 0 ) ( = ( + ( * Nl5main_x1 lam3n1 ) ( * Nl5main_x2 lam3n2 ) ) 0 ) ( = ( + ( * 1 lam3n0 ) ( * Nl5main_y1 lam3n1 ) ( * Nl5main_y2 lam3n2 ) ) 0 ) ) ( and ( >= lam4n1 0 ) ( >= lam4n2 0 ) ( > ( + ( * Nl5CT1 lam4n1 ) ( * Nl5CT2 lam4n2 ) ( - 1 Nl10CT1 ) ) 0 ) ( = ( + ( * Nl5main_x1 lam4n1 ) ( * Nl5main_x2 lam4n2 ) ( - ( + 0 Nl10main_x1 ) ) ) 0 ) ( = ( + ( * 1 lam4n0 ) ( * Nl5main_y1 lam4n1 ) ( * Nl5main_y2 lam4n2 ) ( - ( + 0 Nl10main_y1 ) ) ) 0 ) ) ))
(assert ( or ( and ( >= lam3n1 0 ) ( >= lam3n2 0 ) ( > ( + ( * Nl5CT1 lam3n1 ) ( * Nl5CT2 lam3n2 ) ( - 1 ) ) 0 ) ( = ( + ( * Nl5main_x1 lam3n1 ) ( * Nl5main_x2 lam3n2 ) ) 0 ) ( = ( + ( * 1 lam3n0 ) ( * Nl5main_y1 lam3n1 ) ( * Nl5main_y2 lam3n2 ) ) 0 ) ) ( and ( >= lam5n1 0 ) ( >= lam5n2 0 ) ( > ( + ( * Nl5CT1 lam5n1 ) ( * Nl5CT2 lam5n2 ) ( - 1 Nl10CT2 ) ) 0 ) ( = ( + ( * Nl5main_x1 lam5n1 ) ( * Nl5main_x2 lam5n2 ) ( - ( + 0 Nl10main_x2 ) ) ) 0 ) ( = ( + ( * 1 lam5n0 ) ( * Nl5main_y1 lam5n1 ) ( * Nl5main_y2 lam5n2 ) ( - ( + 0 Nl10main_y2 ) ) ) 0 ) ) ))
(assert ( or ( and ( >= lam6n0 0 ) ( >= lam6n2 0 ) ( >= lam6n3 0 ) ( > ( + ( * 1 lam6n0 ) ( * ( - 1 ) lam6n1 ) ( * Nl5CT1 lam6n2 ) ( * Nl5CT2 lam6n3 ) ( - 1 ) ) 0 ) ( = ( + ( * ( - 1 ) lam6n0 ) ( * Nl5main_x1 lam6n2 ) ( * Nl5main_x2 lam6n3 ) ) 0 ) ( = ( + ( * 1 lam6n1 ) ( * Nl5main_y1 lam6n2 ) ( * Nl5main_y2 lam6n3 ) ) 0 ) ) ( and ( >= lam7n0 0 ) ( >= lam7n2 0 ) ( >= lam7n3 0 ) ( > ( + ( * 1 lam7n0 ) ( * ( - 1 ) lam7n1 ) ( * Nl5CT1 lam7n2 ) ( * Nl5CT2 lam7n3 ) ( - 1 ( + ( + Nl5CT1 ( * Nl5main_x1 1 ) ) ( * Nl5main_y1 1 ) ) ) ) 0 ) ( = ( + ( * ( - 1 ) lam7n0 ) ( * Nl5main_x1 lam7n2 ) ( * Nl5main_x2 lam7n3 ) ( - ( + ( + 0 ( * Nl5main_x1 3 ) ) ( * Nl5main_y1 3 ) ) ) ) 0 ) ( = ( + ( * 1 lam7n1 ) ( * Nl5main_y1 lam7n2 ) ( * Nl5main_y2 lam7n3 ) ) 0 ) ) ))
(assert ( or ( and ( >= lam6n0 0 ) ( >= lam6n2 0 ) ( >= lam6n3 0 ) ( > ( + ( * 1 lam6n0 ) ( * ( - 1 ) lam6n1 ) ( * Nl5CT1 lam6n2 ) ( * Nl5CT2 lam6n3 ) ( - 1 ) ) 0 ) ( = ( + ( * ( - 1 ) lam6n0 ) ( * Nl5main_x1 lam6n2 ) ( * Nl5main_x2 lam6n3 ) ) 0 ) ( = ( + ( * 1 lam6n1 ) ( * Nl5main_y1 lam6n2 ) ( * Nl5main_y2 lam6n3 ) ) 0 ) ) ( and ( >= lam8n0 0 ) ( >= lam8n2 0 ) ( >= lam8n3 0 ) ( > ( + ( * 1 lam8n0 ) ( * ( - 1 ) lam8n1 ) ( * Nl5CT1 lam8n2 ) ( * Nl5CT2 lam8n3 ) ( - 1 ( + ( + Nl5CT2 ( * Nl5main_x2 1 ) ) ( * Nl5main_y2 1 ) ) ) ) 0 ) ( = ( + ( * ( - 1 ) lam8n0 ) ( * Nl5main_x1 lam8n2 ) ( * Nl5main_x2 lam8n3 ) ( - ( + ( + 0 ( * Nl5main_x2 3 ) ) ( * Nl5main_y2 3 ) ) ) ) 0 ) ( = ( + ( * 1 lam8n1 ) ( * Nl5main_y1 lam8n2 ) ( * Nl5main_y2 lam8n3 ) ) 0 ) ) ))
(assert ( or ( and ( >= lam9n0 0 ) ( >= lam9n1 0 ) ( >= lam9n2 0 ) ( > ( + ( * 1 lam9n0 ) ( * Nl10CT1 lam9n1 ) ( * Nl10CT2 lam9n2 ) ( - 1 ) ) 0 ) ( = ( + ( * ( - 1 ) lam9n0 ) ( * Nl10main_x1 lam9n1 ) ( * Nl10main_x2 lam9n2 ) ) 0 ) ( = ( + ( * 2 lam9n0 ) ( * Nl10main_y1 lam9n1 ) ( * Nl10main_y2 lam9n2 ) ) 0 ) ) ( and ( >= lam10n0 0 ) ( >= lam10n1 0 ) ( >= lam10n2 0 ) ( > ( + ( * 1 lam10n0 ) ( * Nl10CT1 lam10n1 ) ( * Nl10CT2 lam10n2 ) ( - 1 ( + Nl10CT1 ( * Nl10main_y1 1 ) ) ) ) 0 ) ( = ( + ( * ( - 1 ) lam10n0 ) ( * Nl10main_x1 lam10n1 ) ( * Nl10main_x2 lam10n2 ) ( - ( + 0 Nl10main_x1 ) ) ) 0 ) ( = ( + ( * 2 lam10n0 ) ( * Nl10main_y1 lam10n1 ) ( * Nl10main_y2 lam10n2 ) ( - ( + 0 ( * Nl10main_y1 1 ) ) ) ) 0 ) ) ))
(assert ( or ( and ( >= lam9n0 0 ) ( >= lam9n1 0 ) ( >= lam9n2 0 ) ( > ( + ( * 1 lam9n0 ) ( * Nl10CT1 lam9n1 ) ( * Nl10CT2 lam9n2 ) ( - 1 ) ) 0 ) ( = ( + ( * ( - 1 ) lam9n0 ) ( * Nl10main_x1 lam9n1 ) ( * Nl10main_x2 lam9n2 ) ) 0 ) ( = ( + ( * 2 lam9n0 ) ( * Nl10main_y1 lam9n1 ) ( * Nl10main_y2 lam9n2 ) ) 0 ) ) ( and ( >= lam11n0 0 ) ( >= lam11n1 0 ) ( >= lam11n2 0 ) ( > ( + ( * 1 lam11n0 ) ( * Nl10CT1 lam11n1 ) ( * Nl10CT2 lam11n2 ) ( - 1 ( + Nl10CT2 ( * Nl10main_y2 1 ) ) ) ) 0 ) ( = ( + ( * ( - 1 ) lam11n0 ) ( * Nl10main_x1 lam11n1 ) ( * Nl10main_x2 lam11n2 ) ( - ( + 0 Nl10main_x2 ) ) ) 0 ) ( = ( + ( * 2 lam11n0 ) ( * Nl10main_y1 lam11n1 ) ( * Nl10main_y2 lam11n2 ) ( - ( + 0 ( * Nl10main_y2 1 ) ) ) ) 0 ) ) ))
(assert ( or ( and ( >= lam12n0 0 ) ( >= lam12n1 0 ) ( >= lam12n2 0 ) ( >= lam12n3 0 ) ( > ( + ( * 2 lam12n1 ) ( * Nl10CT1 lam12n2 ) ( * Nl10CT2 lam12n3 ) ( - 1 ) ) 0 ) ( = ( + ( * 1 lam12n0 ) ( * Nl10main_x1 lam12n2 ) ( * Nl10main_x2 lam12n3 ) ) 0 ) ( = ( + ( * ( - 2 ) lam12n0 ) ( * ( - 1 ) lam12n1 ) ( * Nl10main_y1 lam12n2 ) ( * Nl10main_y2 lam12n3 ) ) 0 ) ) ( and ( >= lam13n0 0 ) ( >= lam13n1 0 ) ( >= lam13n2 0 ) ( >= lam13n3 0 ) ( > ( + ( * 2 lam13n1 ) ( * Nl10CT1 lam13n2 ) ( * Nl10CT2 lam13n3 ) ( - 1 ( + Nl5CT1 ( * Nl5main_x1 0 ) ) ) ) 0 ) ( = ( + ( * 1 lam13n0 ) ( * Nl10main_x1 lam13n2 ) ( * Nl10main_x2 lam13n3 ) ) 0 ) ( = ( + ( * ( - 2 ) lam13n0 ) ( * ( - 1 ) lam13n1 ) ( * Nl10main_y1 lam13n2 ) ( * Nl10main_y2 lam13n3 ) ( - ( + ( + 0 ( * Nl5main_x1 1 ) ) Nl5main_y1 ) ) ) 0 ) ) ))
(assert ( or ( and ( >= lam12n0 0 ) ( >= lam12n1 0 ) ( >= lam12n2 0 ) ( >= lam12n3 0 ) ( > ( + ( * 2 lam12n1 ) ( * Nl10CT1 lam12n2 ) ( * Nl10CT2 lam12n3 ) ( - 1 ) ) 0 ) ( = ( + ( * 1 lam12n0 ) ( * Nl10main_x1 lam12n2 ) ( * Nl10main_x2 lam12n3 ) ) 0 ) ( = ( + ( * ( - 2 ) lam12n0 ) ( * ( - 1 ) lam12n1 ) ( * Nl10main_y1 lam12n2 ) ( * Nl10main_y2 lam12n3 ) ) 0 ) ) ( and ( >= lam14n0 0 ) ( >= lam14n1 0 ) ( >= lam14n2 0 ) ( >= lam14n3 0 ) ( > ( + ( * 2 lam14n1 ) ( * Nl10CT1 lam14n2 ) ( * Nl10CT2 lam14n3 ) ( - 1 ( + Nl5CT2 ( * Nl5main_x2 0 ) ) ) ) 0 ) ( = ( + ( * 1 lam14n0 ) ( * Nl10main_x1 lam14n2 ) ( * Nl10main_x2 lam14n3 ) ) 0 ) ( = ( + ( * ( - 2 ) lam14n0 ) ( * ( - 1 ) lam14n1 ) ( * Nl10main_y1 lam14n2 ) ( * Nl10main_y2 lam14n3 ) ( - ( + ( + 0 ( * Nl5main_x2 1 ) ) Nl5main_y2 ) ) ) 0 ) ) ))
(assert ( and ( <= ( + 2 ( * ( - 1 ) undef2 ) ) 0 ) ( = ( + main_x ( * ( - 1 ) undef2 ) ) 0 ) ( <= ( + ( + Nl5CT1 ( * Nl5main_y1 0 ) ) ( * ( + 0 Nl5main_x1 ) main_x ) ( * ( + 0 ( * Nl5main_y1 1 ) ) undef2 ) ) 0 ) ( <= ( + ( + Nl5CT2 ( * Nl5main_y2 0 ) ) ( * ( + 0 Nl5main_x2 ) main_x ) ( * ( + 0 ( * Nl5main_y2 1 ) ) undef2 ) ) 0 ) ))
(assert ( or ( and ( and ( and ( >= lam20n0 0 ) ( >= lam20n1 0 ) ( >= lam20n2 0 ) ( > ( + ( * 2 lam20n0 ) ( * Nl5CT1 lam20n1 ) ( * Nl5CT2 lam20n2 ) ( - 1 ( - ( + RFN1_CT ( * RFN1_main_y ( - 2 ) ) ) RFN1_CT ) ) ) 0 ) ( = ( + ( * Nl5main_x1 lam20n1 ) ( * Nl5main_x2 lam20n2 ) ( - ( - ( + 0 RFN1_main_x ) RFN1_main_x ) ) ) 0 ) ( = ( + ( * ( - 1 ) lam20n0 ) ( * Nl5main_y1 lam20n1 ) ( * Nl5main_y2 lam20n2 ) ( - ( - ( + 0 ( * RFN1_main_y 1 ) ) RFN1_main_y ) ) ) 0 ) ) ( and ( >= lam25n0 0 ) ( >= lam25n2 0 ) ( >= lam25n3 0 ) ( > ( + ( * 1 lam25n0 ) ( * ( - 1 ) lam25n1 ) ( * Nl5CT1 lam25n2 ) ( * Nl5CT2 lam25n3 ) ( - 1 ( - ( + ( + RFN1_CT ( * RFN1_main_x 1 ) ) ( * RFN1_main_y 1 ) ) RFN1_CT ) ) ) 0 ) ( = ( + ( * ( - 1 ) lam25n0 ) ( * Nl5main_x1 lam25n2 ) ( * Nl5main_x2 lam25n3 ) ( - ( - ( + ( + 0 ( * RFN1_main_x 3 ) ) ( * RFN1_main_y 3 ) ) RFN1_main_x ) ) ) 0 ) ( = ( + ( * 1 lam25n1 ) ( * Nl5main_y1 lam25n2 ) ( * Nl5main_y2 lam25n3 ) ( - ( - RFN1_main_y ) ) ) 0 ) ) ( and ( >= lam29n0 0 ) ( >= lam29n1 0 ) ( >= lam29n2 0 ) ( > ( + ( * 1 lam29n0 ) ( * Nl10CT1 lam29n1 ) ( * Nl10CT2 lam29n2 ) ( - 1 ( - ( + RFN1_CT ( * RFN1_main_y 1 ) ) RFN1_CT ) ) ) 0 ) ( = ( + ( * ( - 1 ) lam29n0 ) ( * Nl10main_x1 lam29n1 ) ( * Nl10main_x2 lam29n2 ) ( - ( - ( + 0 RFN1_main_x ) RFN1_main_x ) ) ) 0 ) ( = ( + ( * 2 lam29n0 ) ( * Nl10main_y1 lam29n1 ) ( * Nl10main_y2 lam29n2 ) ( - ( - ( + 0 ( * RFN1_main_y 1 ) ) RFN1_main_y ) ) ) 0 ) ) ( and ( >= lam33n0 0 ) ( >= lam33n1 0 ) ( >= lam33n2 0 ) ( >= lam33n3 0 ) ( > ( + ( * 2 lam33n1 ) ( * Nl10CT1 lam33n2 ) ( * Nl10CT2 lam33n3 ) ( - 1 ( - ( + RFN1_CT ( * RFN1_main_x 0 ) ) RFN1_CT ) ) ) 0 ) ( = ( + ( * 1 lam33n0 ) ( * Nl10main_x1 lam33n2 ) ( * Nl10main_x2 lam33n3 ) ( - ( - RFN1_main_x ) ) ) 0 ) ( = ( + ( * ( - 2 ) lam33n0 ) ( * ( - 1 ) lam33n1 ) ( * Nl10main_y1 lam33n2 ) ( * Nl10main_y2 lam33n3 ) ( - ( - ( + ( + 0 ( * RFN1_main_x 1 ) ) RFN1_main_y ) RFN1_main_y ) ) ) 0 ) ) ) ( or ( and ( and ( >= lam18n0 0 ) ( >= lam18n1 0 ) ( >= lam18n2 0 ) ( > ( + ( * 2 lam18n0 ) ( * Nl5CT1 lam18n1 ) ( * Nl5CT2 lam18n2 ) ( - 1 ( - RFN1_CT ) ) ) 0 ) ( = ( + ( * Nl5main_x1 lam18n1 ) ( * Nl5main_x2 lam18n2 ) ( - ( - RFN1_main_x ) ) ) 0 ) ( = ( + ( * ( - 1 ) lam18n0 ) ( * Nl5main_y1 lam18n1 ) ( * Nl5main_y2 lam18n2 ) ( - ( - RFN1_main_y ) ) ) 0 ) ) ( and ( >= lam19n0 0 ) ( >= lam19n1 0 ) ( >= lam19n2 0 ) ( > ( + ( * 2 lam19n0 ) ( * Nl5CT1 lam19n1 ) ( * Nl5CT2 lam19n2 ) ( - 1 ( + ( - ( + RFN1_CT ( * RFN1_main_y ( - 2 ) ) ) RFN1_CT ) 1 ) ) ) 0 ) ( = ( + ( * Nl5main_x1 lam19n1 ) ( * Nl5main_x2 lam19n2 ) ( - ( - ( + 0 RFN1_main_x ) RFN1_main_x ) ) ) 0 ) ( = ( + ( * ( - 1 ) lam19n0 ) ( * Nl5main_y1 lam19n1 ) ( * Nl5main_y2 lam19n2 ) ( - ( - ( + 0 ( * RFN1_main_y 1 ) ) RFN1_main_y ) ) ) 0 ) ) ) ( and ( and ( >= lam23n0 0 ) ( >= lam23n2 0 ) ( >= lam23n3 0 ) ( > ( + ( * 1 lam23n0 ) ( * ( - 1 ) lam23n1 ) ( * Nl5CT1 lam23n2 ) ( * Nl5CT2 lam23n3 ) ( - 1 ( - RFN1_CT ) ) ) 0 ) ( = ( + ( * ( - 1 ) lam23n0 ) ( * Nl5main_x1 lam23n2 ) ( * Nl5main_x2 lam23n3 ) ( - ( - RFN1_main_x ) ) ) 0 ) ( = ( + ( * 1 lam23n1 ) ( * Nl5main_y1 lam23n2 ) ( * Nl5main_y2 lam23n3 ) ( - ( - RFN1_main_y ) ) ) 0 ) ) ( and ( >= lam24n0 0 ) ( >= lam24n2 0 ) ( >= lam24n3 0 ) ( > ( + ( * 1 lam24n0 ) ( * ( - 1 ) lam24n1 ) ( * Nl5CT1 lam24n2 ) ( * Nl5CT2 lam24n3 ) ( - 1 ( + ( - ( + ( + RFN1_CT ( * RFN1_main_x 1 ) ) ( * RFN1_main_y 1 ) ) RFN1_CT ) 1 ) ) ) 0 ) ( = ( + ( * ( - 1 ) lam24n0 ) ( * Nl5main_x1 lam24n2 ) ( * Nl5main_x2 lam24n3 ) ( - ( - ( + ( + 0 ( * RFN1_main_x 3 ) ) ( * RFN1_main_y 3 ) ) RFN1_main_x ) ) ) 0 ) ( = ( + ( * 1 lam24n1 ) ( * Nl5main_y1 lam24n2 ) ( * Nl5main_y2 lam24n3 ) ( - ( - RFN1_main_y ) ) ) 0 ) ) ) ( and ( and ( >= lam27n0 0 ) ( >= lam27n1 0 ) ( >= lam27n2 0 ) ( > ( + ( * 1 lam27n0 ) ( * Nl10CT1 lam27n1 ) ( * Nl10CT2 lam27n2 ) ( - 1 ( - RFN1_CT ) ) ) 0 ) ( = ( + ( * ( - 1 ) lam27n0 ) ( * Nl10main_x1 lam27n1 ) ( * Nl10main_x2 lam27n2 ) ( - ( - RFN1_main_x ) ) ) 0 ) ( = ( + ( * 2 lam27n0 ) ( * Nl10main_y1 lam27n1 ) ( * Nl10main_y2 lam27n2 ) ( - ( - RFN1_main_y ) ) ) 0 ) ) ( and ( >= lam28n0 0 ) ( >= lam28n1 0 ) ( >= lam28n2 0 ) ( > ( + ( * 1 lam28n0 ) ( * Nl10CT1 lam28n1 ) ( * Nl10CT2 lam28n2 ) ( - 1 ( + ( - ( + RFN1_CT ( * RFN1_main_y 1 ) ) RFN1_CT ) 1 ) ) ) 0 ) ( = ( + ( * ( - 1 ) lam28n0 ) ( * Nl10main_x1 lam28n1 ) ( * Nl10main_x2 lam28n2 ) ( - ( - ( + 0 RFN1_main_x ) RFN1_main_x ) ) ) 0 ) ( = ( + ( * 2 lam28n0 ) ( * Nl10main_y1 lam28n1 ) ( * Nl10main_y2 lam28n2 ) ( - ( - ( + 0 ( * RFN1_main_y 1 ) ) RFN1_main_y ) ) ) 0 ) ) ) ( and ( and ( >= lam31n0 0 ) ( >= lam31n1 0 ) ( >= lam31n2 0 ) ( >= lam31n3 0 ) ( > ( + ( * 2 lam31n1 ) ( * Nl10CT1 lam31n2 ) ( * Nl10CT2 lam31n3 ) ( - 1 ( - RFN1_CT ) ) ) 0 ) ( = ( + ( * 1 lam31n0 ) ( * Nl10main_x1 lam31n2 ) ( * Nl10main_x2 lam31n3 ) ( - ( - RFN1_main_x ) ) ) 0 ) ( = ( + ( * ( - 2 ) lam31n0 ) ( * ( - 1 ) lam31n1 ) ( * Nl10main_y1 lam31n2 ) ( * Nl10main_y2 lam31n3 ) ( - ( - RFN1_main_y ) ) ) 0 ) ) ( and ( >= lam32n0 0 ) ( >= lam32n1 0 ) ( >= lam32n2 0 ) ( >= lam32n3 0 ) ( > ( + ( * 2 lam32n1 ) ( * Nl10CT1 lam32n2 ) ( * Nl10CT2 lam32n3 ) ( - 1 ( + ( - ( + RFN1_CT ( * RFN1_main_x 0 ) ) RFN1_CT ) 1 ) ) ) 0 ) ( = ( + ( * 1 lam32n0 ) ( * Nl10main_x1 lam32n2 ) ( * Nl10main_x2 lam32n3 ) ( - ( - RFN1_main_x ) ) ) 0 ) ( = ( + ( * ( - 2 ) lam32n0 ) ( * ( - 1 ) lam32n1 ) ( * Nl10main_y1 lam32n2 ) ( * Nl10main_y2 lam32n3 ) ( - ( - ( + ( + 0 ( * RFN1_main_x 1 ) ) RFN1_main_y ) RFN1_main_y ) ) ) 0 ) ) ) ) ) ( or ( and ( >= lam17n0 0 ) ( >= lam17n1 0 ) ( >= lam17n2 0 ) ( > ( + ( * 2 lam17n0 ) ( * Nl5CT1 lam17n1 ) ( * Nl5CT2 lam17n2 ) ( - 1 ) ) 0 ) ( = ( + ( * Nl5main_x1 lam17n1 ) ( * Nl5main_x2 lam17n2 ) ) 0 ) ( = ( + ( * ( - 1 ) lam17n0 ) ( * Nl5main_y1 lam17n1 ) ( * Nl5main_y2 lam17n2 ) ) 0 ) ) ( and ( >= lam21n1 0 ) ( >= lam21n2 0 ) ( > ( + ( * Nl5CT1 lam21n1 ) ( * Nl5CT2 lam21n2 ) ( - 1 ) ) 0 ) ( = ( + ( * Nl5main_x1 lam21n1 ) ( * Nl5main_x2 lam21n2 ) ) 0 ) ( = ( + ( * 1 lam21n0 ) ( * Nl5main_y1 lam21n1 ) ( * Nl5main_y2 lam21n2 ) ) 0 ) ) ( and ( >= lam22n0 0 ) ( >= lam22n2 0 ) ( >= lam22n3 0 ) ( > ( + ( * 1 lam22n0 ) ( * ( - 1 ) lam22n1 ) ( * Nl5CT1 lam22n2 ) ( * Nl5CT2 lam22n3 ) ( - 1 ) ) 0 ) ( = ( + ( * ( - 1 ) lam22n0 ) ( * Nl5main_x1 lam22n2 ) ( * Nl5main_x2 lam22n3 ) ) 0 ) ( = ( + ( * 1 lam22n1 ) ( * Nl5main_y1 lam22n2 ) ( * Nl5main_y2 lam22n3 ) ) 0 ) ) ( and ( >= lam26n0 0 ) ( >= lam26n1 0 ) ( >= lam26n2 0 ) ( > ( + ( * 1 lam26n0 ) ( * Nl10CT1 lam26n1 ) ( * Nl10CT2 lam26n2 ) ( - 1 ) ) 0 ) ( = ( + ( * ( - 1 ) lam26n0 ) ( * Nl10main_x1 lam26n1 ) ( * Nl10main_x2 lam26n2 ) ) 0 ) ( = ( + ( * 2 lam26n0 ) ( * Nl10main_y1 lam26n1 ) ( * Nl10main_y2 lam26n2 ) ) 0 ) ) ( and ( >= lam30n0 0 ) ( >= lam30n1 0 ) ( >= lam30n2 0 ) ( >= lam30n3 0 ) ( > ( + ( * 2 lam30n1 ) ( * Nl10CT1 lam30n2 ) ( * Nl10CT2 lam30n3 ) ( - 1 ) ) 0 ) ( = ( + ( * 1 lam30n0 ) ( * Nl10main_x1 lam30n2 ) ( * Nl10main_x2 lam30n3 ) ) 0 ) ( = ( + ( * ( - 2 ) lam30n0 ) ( * ( - 1 ) lam30n1 ) ( * Nl10main_y1 lam30n2 ) ( * Nl10main_y2 lam30n3 ) ) 0 ) ) ) ))
(check-sat)
(exit)
